!   File created by the GAMESS Input Deck Generator Plugin for Avogadro
 $BASIS GBASIS=N31 NGAUSS=6 NDFUNC=1 $END
 $CONTRL SCFTYP=RHF RUNTYP=OPTIMIZE $END
 $SYSTEM TIMLIM=600 MWORDS=100 $END
 $STATPT OPTTOL=0.005 NSTEP=100 $END

 $DATA 
compound11_up_up_up
C1
O     8.0     0.91808    -0.48807    -0.00522
C     6.0     2.13716    -0.40295     0.03878
N     7.0     2.89383    -1.36322    -0.53735
C     6.0     4.34757    -1.35290    -0.56977
C     6.0     4.87408    -2.75949    -0.32894
C     6.0     4.74975    -3.38976     0.93363
O     8.0     4.13121    -2.68694     1.92555
C     6.0     3.94260    -3.05215     3.24149
C     6.0     5.28538    -4.69794     1.11578
O     8.0     5.19180    -5.30974     2.32633
C     6.0     5.69656    -6.55076     2.65862
C     6.0     5.91706    -5.33938     0.02989
C     6.0     6.02629    -4.70898    -1.20442
C     6.0     5.51476    -3.42998    -1.38337
C     6.0     2.75956     0.76315     0.73012
H     1.0     2.36974     1.72180     0.31179
C     6.0     2.38145     0.79073     2.21007
C     6.0     3.54462     1.45238     2.82160
C     6.0     3.60491     1.90894     4.13934
C     6.0     4.80913     2.42647     4.62096
C     6.0     5.93861     2.45334     3.79360
C     6.0     5.86815     1.97367     2.47703
C     6.0     4.64502     1.48031     1.97626
C     6.0     4.30487     0.86307     0.61527
N     7.0     4.98246    -0.43535     0.42986
C     6.0     6.32687    -0.05751    -0.08094
C     6.0     6.21251     1.32976    -0.74199
C     6.0     4.74413     1.67840    -0.60494
H     1.0     2.40952    -2.10714    -1.06481
H     1.0     4.60499    -1.05175    -1.61227
H     1.0     3.41497    -2.23281     3.77032
H     1.0     4.92246    -3.20912     3.74096
H     1.0     3.31492    -3.96574     3.30471
H     1.0     5.46652    -6.76262     3.72266
H     1.0     6.80007    -6.56357     2.52789
H     1.0     5.22782    -7.33841     2.03132
H     1.0     6.33457    -6.33209     0.12842
H     1.0     6.51562    -5.21379    -2.02766
H     1.0     5.61998    -2.96153    -2.35412
H     1.0     2.32381    -0.22060     2.66724
H     1.0     1.41917     1.33200     2.34833
H     1.0     2.73525     1.85664     4.78207
H     1.0     4.87367     2.78760     5.63917
H     1.0     6.87535     2.83519     4.17863
H     1.0     6.77189     1.99718     1.90177
H     1.0     6.77054    -0.80174    -0.78050
H     1.0     7.03456    -0.00617     0.77273
H     1.0     6.55695     1.37221    -1.79732
H     1.0     6.82896     2.05560    -0.18296
H     1.0     4.22942     1.23879    -1.48778
H     1.0     4.51590     2.76559    -0.59489
 $END
