!   File created by the GAMESS Input Deck Generator Plugin for Avogadro
 $BASIS GBASIS=N31 NGAUSS=6 NDFUNC=1 $END
 $CONTRL SCFTYP=RHF RUNTYP=OPTIMIZE $END
 $SYSTEM TIMLIM=600 MWORDS=100 $END
 $STATPT OPTTOL=0.005 NSTEP=10 $END

 $DATA 
compound11_up_up_down
C1
O     8.0     1.58735     0.32481    -1.40702
C     6.0     2.41329     0.08971    -0.53845
N     7.0     3.01160    -1.12772    -0.46704
C     6.0     4.08201    -1.33084     0.50033
C     6.0     4.72457    -2.71889     0.37979
C     6.0     4.81729    -3.57841     1.51019
O     8.0     4.32839    -3.11722     2.69791
C     6.0     4.30793    -3.74090     3.92703
C     6.0     5.41542    -4.86346     1.36981
O     8.0     5.51414    -5.68661     2.44718
C     6.0     6.07276    -6.94785     2.47110
C     6.0     5.89938    -5.26367     0.10936
C     6.0     5.79641    -4.42206    -0.99065
C     6.0     5.21644    -3.16623    -0.86064
C     6.0     2.87848     1.17356     0.39554
H     1.0     2.57283     2.18908     0.04562
C     6.0     2.29458     1.09046     1.81634
C     6.0     3.40279     1.65436     2.62849
C     6.0     3.33028     2.03368     3.97028
C     6.0     4.49296     2.48250     4.60988
C     6.0     5.71114     2.52314     3.91277
C     6.0     5.77513     2.11486     2.57224
C     6.0     4.60193     1.68944     1.93174
C     6.0     4.43075     1.15369     0.53450
N     7.0     5.05525    -0.20481     0.43525
C     6.0     5.92006    -0.14873    -0.75366
C     6.0     6.39465     1.28965    -0.80859
C     6.0     5.08520     2.00609    -0.57293
H     1.0     2.75158    -1.86845    -1.13649
H     1.0     3.63548    -1.26527     1.50526
H     1.0     3.83231    -3.06203     4.66413
H     1.0     5.34279    -3.95200     4.27012
H     1.0     3.70631    -4.67296     3.87785
H     1.0     5.99928    -7.35554     3.50008
H     1.0     7.14546    -6.89780     2.18689
H     1.0     5.52371    -7.62482     1.78270
H     1.0     6.35803    -6.23238    -0.03488
H     1.0     6.16711    -4.74730    -1.95446
H     1.0     5.14442    -2.55320    -1.74571
H     1.0     2.09727     0.06718     2.19289
H     1.0     1.35094     1.67642     1.86815
H     1.0     2.39334     1.97978     4.50959
H     1.0     4.45484     2.78617     5.64802
H     1.0     6.60819     2.85927     4.41675
H     1.0     6.72463     2.13635     2.06409
H     1.0     5.32309    -0.34527    -1.67334
H     1.0     6.76965    -0.86108    -0.69202
H     1.0     6.90017     1.56805    -1.75770
H     1.0     7.09420     1.46798     0.03046
H     1.0     4.50507     1.87504    -1.51674
H     1.0     5.14379     3.09636    -0.36744
 $END
